\ENCODING=ISO-8859-1
\Problem name: IloCplex

Minimize
 obj1: X_1 + X_2 + X_3 + X_4 + X_5 + X_6 + X_7 + X_8 + X_9 + X_10 + X_11 + X_12
       + X_13 + X_14 + X_15 + X_16 + X_17 + X_19 + X_20 + X_21 + X_22 + X_23
       + X_24 + X_25 + X_26 + X_27 + X_28 + X_29 + X_30 + X_31 + X_32 + X_33
       + X_34 + X_35 + X_36 + X_37 + X_38 + X_39 + X_40 + X_41 + X_42 + X_43
Subject To
 c1:  3 X_1 + X_25 + X_27 + 2 X_29 + X_35 + X_39 >= 2
 c2:  2 X_2 + X_33 + X_34 + X_37 + X_39 >= 1
 c3:  2 X_3 + X_24 + X_32 + X_38 >= 1
 c4:  2 X_4 + X_21 + X_22 + X_23 >= 2
 c5:  X_5 + X_26 + X_27 + X_41 >= 1
 c6:  X_6 + X_23 >= 1
 c7:  3 X_7 + X_19 + X_20 + 3 X_28 + X_32 + X_38 + X_39 >= 2
 c8:  4 X_8 + X_33 + X_34 + 3 X_35 + X_36 >= 1
 c9:  3 X_9 + X_34 + X_38 + X_40 >= 1
 c10: 4 X_10 + X_19 + X_28 + 2 X_29 + X_30 + 2 X_31 >= 1
 c11: X_11 + X_19 + X_24 + X_37 + X_43 >= 1
 c12: 5 X_12 + X_20 + 2 X_26 + X_30 + X_36 + X_43 >= 1
 c13: 3 X_13 + X_32 + X_33 + X_41 + X_43 >= 1
 c14: X_14 + X_20 + X_31 >= 1
 c15: X_15 + X_22 + X_30 + X_36 >= 1
 c16: X_16 + X_21 + X_25 + X_40 + X_42 >= 1
 c17: 3 X_17 + X_42 >= 1
End
